solution status: optimal solution found
objective value:                                    0
$_39_y                                            -25 	(obj:0)
$_39_z                                            -21 	(obj:0)
$_43_y                                            -25 	(obj:0)
$_43_z                                            -25 	(obj:0)
$_64_y                                            -25 	(obj:0)
$_64_z                                            -23 	(obj:0)
$_50_y                                            -25 	(obj:0)
$_50_z                                            -22 	(obj:0)
